instances/knapsack/discrete/knapsack_100_19.lp
\ Model knapsack_100_19
\ LP format - for model browsing. Use MPS format to capture full model detail.
\ Signature: 0x98b4e0718ea0846a
Minimize
  - 29 x[0] - 45 x[1] - 63 x[2] - 35 x[3] - 60 x[4] - 40 x[5] - 40 x[6]
   - 86 x[7] - 45 x[8] - 13 x[9] - 90 x[10] - 90 x[11] - 54 x[12]
   - 37 x[13] - 14 x[14] - 71 x[15] - 37 x[16] - 61 x[17] - 25 x[18]
   - 88 x[19] - 8 x[20] - 94 x[21] - 39 x[22] - 75 x[23] - 20 x[24]
   - 21 x[25] - 79 x[26] - 14 x[27] - x[28] - 71 x[29] - 44 x[30]
   - 11 x[31] - 47 x[32] - 26 x[33] - 18 x[34] - 52 x[35] - 60 x[36]
   - 2 x[37] - 93 x[38] - 90 x[39] - 43 x[40] - 68 x[41] - 44 x[42]
   - 10 x[43] - 25 x[44] - 62 x[45] - 23 x[46] - 75 x[47] - 51 x[48]
   - 56 x[49] - 70 x[50] - 65 x[51] - 98 x[52] - 8 x[53] - 71 x[54]
   - 77 x[55] - 29 x[56] - 75 x[57] - 15 x[58] - 30 x[59] - 87 x[60]
   - 53 x[61] - 52 x[62] - 96 x[63] - 65 x[64] - 12 x[65] - 88 x[66]
   - 20 x[67] - 91 x[68] - 56 x[69] - 84 x[70] - 98 x[71] - 8 x[72]
   - 8 x[73] - 33 x[74] - 13 x[75] - 97 x[76] - 80 x[77] - 99 x[78]
   - 34 x[79] - 38 x[80] - 69 x[81] - 68 x[82] - 41 x[83] - 92 x[84]
   - 11 x[85] - 81 x[86] - 74 x[87] - 15 x[88] - 29 x[89] - x[90]
   - 20 x[91] - 72 x[92] - 47 x[93] - 59 x[94] - 49 x[95] - 96 x[96]
   - 59 x[97] - 11 x[98] - 47 x[99]
Subject To
 primal_upper: 12 x[0] + 97 x[1] + 99 x[2] + 24 x[3] + 33 x[4] + 30 x[5]
   + 66 x[6] + 20 x[7] + 58 x[8] + 91 x[9] + 96 x[10] + 8 x[11] + 85 x[12]
   + 97 x[13] + 85 x[14] + 57 x[15] + 2 x[16] + 97 x[17] + 30 x[18]
   + 87 x[19] + 54 x[20] + 32 x[21] + 69 x[22] + 75 x[23] + 81 x[24]
   + 33 x[25] + 79 x[26] + 52 x[27] + 94 x[28] + 100 x[29] + 14 x[30]
   + 68 x[31] + 48 x[32] + 70 x[33] + 53 x[34] + 26 x[35] + 29 x[36]
   + 81 x[37] + 41 x[38] + 87 x[39] + 32 x[40] + 22 x[41] + 71 x[42]
   + 90 x[43] + 4 x[44] + 55 x[45] + 22 x[46] + 30 x[47] + 12 x[48]
   + 85 x[49] + 59 x[50] + 53 x[51] + 42 x[52] + 33 x[53] + 57 x[54]
   + 60 x[55] + 2 x[56] + 27 x[57] + 37 x[58] + 59 x[59] + 65 x[60]
   + 87 x[61] + 24 x[62] + 11 x[63] + 80 x[64] + 77 x[65] + 53 x[66]
   + 87 x[67] + 9 x[68] + 82 x[69] + 50 x[70] + 94 x[71] + 63 x[72]
   + 28 x[73] + 20 x[74] + 93 x[75] + 47 x[76] + 96 x[77] + 9 x[78]
   + 63 x[79] + 6 x[80] + 62 x[81] + 79 x[82] + 98 x[83] + 10 x[84]
   + 54 x[85] + 48 x[86] + 97 x[87] + 35 x[88] + 4 x[89] + 37 x[90]
   + 61 x[91] + 57 x[92] + 44 x[93] + x[94] + 78 x[95] + 26 x[96]
   + 25 x[97] + 37 x[98] + 57 x[99] + 1.2 r[0] + 9.7 r[1] + 9.9 r[2]
   + 2.4 r[3] + 3.3 r[4] + 3 r[5] + 6.6 r[6] + 2 r[7] + 5.8 r[8] + 9.1 r[9]
   + 9.6 r[10] + 0.8 r[11] + 8.5 r[12] + 9.7 r[13] + 8.5 r[14] + 5.7 r[15]
   + 0.2 r[16] + 9.7 r[17] + 3 r[18] + 8.7 r[19] + 5.4 r[20] + 3.2 r[21]
   + 6.9 r[22] + 7.5 r[23] + 8.1 r[24] + 3.3 r[25] + 7.9 r[26] + 5.2 r[27]
   + 9.4 r[28] + 10 r[29] + 1.4 r[30] + 6.8 r[31] + 4.8 r[32] + 7 r[33]
   + 5.3 r[34] + 2.6 r[35] + 2.9 r[36] + 8.1 r[37] + 4.1 r[38] + 8.7 r[39]
   + 3.2 r[40] + 2.2 r[41] + 7.1 r[42] + 9 r[43] + 0.4 r[44] + 5.5 r[45]
   + 2.2 r[46] + 3 r[47] + 1.2 r[48] + 8.5 r[49] + 5.9 r[50] + 5.3 r[51]
   + 4.2 r[52] + 3.3 r[53] + 5.7 r[54] + 6 r[55] + 0.2 r[56] + 2.7 r[57]
   + 3.7 r[58] + 5.9 r[59] + 6.5 r[60] + 8.7 r[61] + 2.4 r[62] + 1.1 r[63]
   + 8 r[64] + 7.7 r[65] + 5.3 r[66] + 8.7 r[67] + 0.9 r[68] + 8.2 r[69]
   + 5 r[70] + 9.4 r[71] + 6.3 r[72] + 2.8 r[73] + 2 r[74] + 9.3 r[75]
   + 4.7 r[76] + 9.6 r[77] + 0.9 r[78] + 6.3 r[79] + 0.6 r[80] + 6.2 r[81]
   + 7.9 r[82] + 9.8 r[83] + r[84] + 5.4 r[85] + 4.8 r[86] + 9.7 r[87]
   + 3.5 r[88] + 0.4 r[89] + 3.7 r[90] + 6.1 r[91] + 5.7 r[92] + 4.4 r[93]
   + 0.1 r[94] + 7.8 r[95] + 2.6 r[96] + 2.5 r[97] + 3.7 r[98] + 5.7 r[99]
   <= 501
 primal_lower: 1.887874555732091 x[0] + 2.563982015666552 x[1]
   + 2.402224875609779 x[2] + 0.4695148976091725 x[3]
   + 0.4213037835592551 x[4] + 3.941858637015425 x[5]
   + 0.9132694213011748 x[6] + 4.431409991439713 x[7]
   + 1.955116987189892 x[8] + 0.3443553749194874 x[9]
   + 4.068847241011051 x[10] + 1.093988089337018 x[11]
   + 5.068737827989272 x[12] + 1.483258853851644 x[13]
   + 0.6099747988417654 x[14] + 3.872156343237195 x[15]
   + 4.786974298663233 x[16] + 1.93937490389232 x[17]
   + 1.501776199436297 x[18] + 0.2127057210567625 x[19]
   + 3.653981514543977 x[20] + 4.372858443940381 x[21]
   + 2.467824710468356 x[22] + 3.287152952435684 x[23]
   + 1.54342722738725 x[24] + 4.229842840360504 x[25]
   + 4.67012113797338 x[26] + 4.37719441518276 x[27]
   + 2.590039839735091 x[28] + 3.811631988362512 x[29]
   + 5.126756978794369 x[30] + 3.553407271153552 x[31]
   + 0.9963391455237506 x[32] + 4.916764730365744 x[33]
   + 3.587423537078061 x[34] + 2.617829806596501 x[35]
   + 0.9110121461670099 x[36] + 0.800986610071367 x[37]
   + 0.5041176371333079 x[38] + 1.204078922213855 x[39]
   + 3.417380373945084 x[40] + 4.641467683096101 x[41]
   + 4.53577678610621 x[42] + 4.801954787684021 x[43]
   + 0.7200281390342658 x[44] + 3.260245111660906 x[45]
   + 0.096620849909743 x[46] + 5.198142468900562 x[47]
   + 0.3204598125526195 x[48] + 4.927008195700459 x[49]
   + 4.944639140741275 x[50] + 3.794749745060127 x[51]
   + 3.622430656945386 x[52] + 0.8040939168547742 x[53]
   + 4.052818131523359 x[54] + 1.427691352838539 x[55]
   + 3.957190494440497 x[56] + 1.120098345923577 x[57]
   + 1.067073837166425 x[58] + 0.0866562544936743 x[59]
   + 4.972183189130224 x[60] + 1.630490423349596 x[61]
   + 4.664192822759478 x[62] + 3.788569225971374 x[63]
   + 0.3751963448021215 x[64] + 1.815730055819005 x[65]
   + 1.622259422598852 x[66] + 4.78997354162684 x[67]
   + 0.1101810448002399 x[68] + 2.160707985842293 x[69]
   + 3.425760606474323 x[70] + 4.381818789524618 x[71]
   + 3.344070419454567 x[72] + 1.362792847422923 x[73]
   + 1.408368623208847 x[74] + 4.017777873588575 x[75]
   + 5.162255673725627 x[76] + 2.048665268317126 x[77]
   + 4.79674956550868 x[78] + 3.886603496056694 x[79]
   + 2.470775541479681 x[80] + 1.110191524666134 x[81]
   + 4.51211561415883 x[82] + 2.567525447609879 x[83]
   + 4.757963841672428 x[84] + 1.75358677996206 x[85]
   + 3.739735688741561 x[86] + 5.038511199654639 x[87]
   + 0.0393338463022088 x[88] + 1.046384713410971 x[89]
   + 2.320028629122768 x[90] + 0.5536936265494657 x[91]
   + 2.230797668775834 x[92] + 2.737259767013196 x[93]
   + 1.536007308941878 x[94] + 4.643515904770328 x[95]
   + 2.152993859228563 x[96] + 2.961427034364155 x[97]
   + 0.2192559512070199 x[98] + 3.637949882181057 x[99] + 38 u[0] + 78 u[1]
   + 92 u[2] + 85 u[3] + 46 u[4] + 84 u[5] + 51 u[6] + 98 u[7] + 59 u[8]
   + 28 u[9] + 74 u[10] + 17 u[11] + 98 u[12] + 86 u[13] + 99 u[14]
   + 51 u[15] + 59 u[16] + 94 u[17] + 43 u[18] + 36 u[19] + 27 u[20]
   + 22 u[21] + 54 u[22] + 85 u[23] + 7 u[24] + 34 u[25] + 76 u[26]
   + 34 u[27] + 88 u[28] + 49 u[29] + 80 u[30] + 50 u[31] + 82 u[32]
   + 55 u[33] + 58 u[34] + 43 u[35] + 54 u[36] + 15 u[37] + 22 u[38]
   + 21 u[39] + 25 u[40] + 60 u[41] + 72 u[42] + 20 u[43] + 49 u[44]
   + 61 u[45] + 56 u[46] + 52 u[47] + 65 u[48] + 50 u[49] + 53 u[50]
   + 54 u[51] + 15 u[52] + 38 u[53] + 79 u[54] + 34 u[55] + 23 u[56]
   + 17 u[57] + 10 u[58] + 84 u[59] + 15 u[60] + 81 u[61] + 26 u[62]
   + 25 u[63] + 74 u[64] + 78 u[65] + 67 u[66] + 69 u[67] + 14 u[68]
   + 36 u[69] + 40 u[70] + 44 u[71] + 84 u[72] + 33 u[73] + 2 u[74]
   + 43 u[75] + 61 u[76] + u[77] + 3 u[78] + 81 u[79] + 88 u[80] + 88 u[81]
   + 81 u[82] + 20 u[83] + 64 u[84] + 96 u[85] + 70 u[86] + 90 u[87]
   + 92 u[88] + 65 u[89] + 75 u[90] + 99 u[91] + 63 u[92] + 82 u[93]
   + 94 u[94] + 79 u[95] + 79 u[96] + 67 u[97] + 82 u[98] + 90 u[99]
   <= 86950
 mccormick1[0]: - u[0] + r[0] <= 0
 mccormick1[1]: - u[1] + r[1] <= 0
 mccormick1[2]: - u[2] + r[2] <= 0
 mccormick1[3]: - u[3] + r[3] <= 0
 mccormick1[4]: - u[4] + r[4] <= 0
 mccormick1[5]: - u[5] + r[5] <= 0
 mccormick1[6]: - u[6] + r[6] <= 0
 mccormick1[7]: - u[7] + r[7] <= 0
 mccormick1[8]: - u[8] + r[8] <= 0
 mccormick1[9]: - u[9] + r[9] <= 0
 mccormick1[10]: - u[10] + r[10] <= 0
 mccormick1[11]: - u[11] + r[11] <= 0
 mccormick1[12]: - u[12] + r[12] <= 0
 mccormick1[13]: - u[13] + r[13] <= 0
 mccormick1[14]: - u[14] + r[14] <= 0
 mccormick1[15]: - u[15] + r[15] <= 0
 mccormick1[16]: - u[16] + r[16] <= 0
 mccormick1[17]: - u[17] + r[17] <= 0
 mccormick1[18]: - u[18] + r[18] <= 0
 mccormick1[19]: - u[19] + r[19] <= 0
 mccormick1[20]: - u[20] + r[20] <= 0
 mccormick1[21]: - u[21] + r[21] <= 0
 mccormick1[22]: - u[22] + r[22] <= 0
 mccormick1[23]: - u[23] + r[23] <= 0
 mccormick1[24]: - u[24] + r[24] <= 0
 mccormick1[25]: - u[25] + r[25] <= 0
 mccormick1[26]: - u[26] + r[26] <= 0
 mccormick1[27]: - u[27] + r[27] <= 0
 mccormick1[28]: - u[28] + r[28] <= 0
 mccormick1[29]: - u[29] + r[29] <= 0
 mccormick1[30]: - u[30] + r[30] <= 0
 mccormick1[31]: - u[31] + r[31] <= 0
 mccormick1[32]: - u[32] + r[32] <= 0
 mccormick1[33]: - u[33] + r[33] <= 0
 mccormick1[34]: - u[34] + r[34] <= 0
 mccormick1[35]: - u[35] + r[35] <= 0
 mccormick1[36]: - u[36] + r[36] <= 0
 mccormick1[37]: - u[37] + r[37] <= 0
 mccormick1[38]: - u[38] + r[38] <= 0
 mccormick1[39]: - u[39] + r[39] <= 0
 mccormick1[40]: - u[40] + r[40] <= 0
 mccormick1[41]: - u[41] + r[41] <= 0
 mccormick1[42]: - u[42] + r[42] <= 0
 mccormick1[43]: - u[43] + r[43] <= 0
 mccormick1[44]: - u[44] + r[44] <= 0
 mccormick1[45]: - u[45] + r[45] <= 0
 mccormick1[46]: - u[46] + r[46] <= 0
 mccormick1[47]: - u[47] + r[47] <= 0
 mccormick1[48]: - u[48] + r[48] <= 0
 mccormick1[49]: - u[49] + r[49] <= 0
 mccormick1[50]: - u[50] + r[50] <= 0
 mccormick1[51]: - u[51] + r[51] <= 0
 mccormick1[52]: - u[52] + r[52] <= 0
 mccormick1[53]: - u[53] + r[53] <= 0
 mccormick1[54]: - u[54] + r[54] <= 0
 mccormick1[55]: - u[55] + r[55] <= 0
 mccormick1[56]: - u[56] + r[56] <= 0
 mccormick1[57]: - u[57] + r[57] <= 0
 mccormick1[58]: - u[58] + r[58] <= 0
 mccormick1[59]: - u[59] + r[59] <= 0
 mccormick1[60]: - u[60] + r[60] <= 0
 mccormick1[61]: - u[61] + r[61] <= 0
 mccormick1[62]: - u[62] + r[62] <= 0
 mccormick1[63]: - u[63] + r[63] <= 0
 mccormick1[64]: - u[64] + r[64] <= 0
 mccormick1[65]: - u[65] + r[65] <= 0
 mccormick1[66]: - u[66] + r[66] <= 0
 mccormick1[67]: - u[67] + r[67] <= 0
 mccormick1[68]: - u[68] + r[68] <= 0
 mccormick1[69]: - u[69] + r[69] <= 0
 mccormick1[70]: - u[70] + r[70] <= 0
 mccormick1[71]: - u[71] + r[71] <= 0
 mccormick1[72]: - u[72] + r[72] <= 0
 mccormick1[73]: - u[73] + r[73] <= 0
 mccormick1[74]: - u[74] + r[74] <= 0
 mccormick1[75]: - u[75] + r[75] <= 0
 mccormick1[76]: - u[76] + r[76] <= 0
 mccormick1[77]: - u[77] + r[77] <= 0
 mccormick1[78]: - u[78] + r[78] <= 0
 mccormick1[79]: - u[79] + r[79] <= 0
 mccormick1[80]: - u[80] + r[80] <= 0
 mccormick1[81]: - u[81] + r[81] <= 0
 mccormick1[82]: - u[82] + r[82] <= 0
 mccormick1[83]: - u[83] + r[83] <= 0
 mccormick1[84]: - u[84] + r[84] <= 0
 mccormick1[85]: - u[85] + r[85] <= 0
 mccormick1[86]: - u[86] + r[86] <= 0
 mccormick1[87]: - u[87] + r[87] <= 0
 mccormick1[88]: - u[88] + r[88] <= 0
 mccormick1[89]: - u[89] + r[89] <= 0
 mccormick1[90]: - u[90] + r[90] <= 0
 mccormick1[91]: - u[91] + r[91] <= 0
 mccormick1[92]: - u[92] + r[92] <= 0
 mccormick1[93]: - u[93] + r[93] <= 0
 mccormick1[94]: - u[94] + r[94] <= 0
 mccormick1[95]: - u[95] + r[95] <= 0
 mccormick1[96]: - u[96] + r[96] <= 0
 mccormick1[97]: - u[97] + r[97] <= 0
 mccormick1[98]: - u[98] + r[98] <= 0
 mccormick1[99]: - u[99] + r[99] <= 0
 mccormick2[0]: - x[0] + r[0] <= 0
 mccormick2[1]: - x[1] + r[1] <= 0
 mccormick2[2]: - x[2] + r[2] <= 0
 mccormick2[3]: - x[3] + r[3] <= 0
 mccormick2[4]: - x[4] + r[4] <= 0
 mccormick2[5]: - x[5] + r[5] <= 0
 mccormick2[6]: - x[6] + r[6] <= 0
 mccormick2[7]: - x[7] + r[7] <= 0
 mccormick2[8]: - x[8] + r[8] <= 0
 mccormick2[9]: - x[9] + r[9] <= 0
 mccormick2[10]: - x[10] + r[10] <= 0
 mccormick2[11]: - x[11] + r[11] <= 0
 mccormick2[12]: - x[12] + r[12] <= 0
 mccormick2[13]: - x[13] + r[13] <= 0
 mccormick2[14]: - x[14] + r[14] <= 0
 mccormick2[15]: - x[15] + r[15] <= 0
 mccormick2[16]: - x[16] + r[16] <= 0
 mccormick2[17]: - x[17] + r[17] <= 0
 mccormick2[18]: - x[18] + r[18] <= 0
 mccormick2[19]: - x[19] + r[19] <= 0
 mccormick2[20]: - x[20] + r[20] <= 0
 mccormick2[21]: - x[21] + r[21] <= 0
 mccormick2[22]: - x[22] + r[22] <= 0
 mccormick2[23]: - x[23] + r[23] <= 0
 mccormick2[24]: - x[24] + r[24] <= 0
 mccormick2[25]: - x[25] + r[25] <= 0
 mccormick2[26]: - x[26] + r[26] <= 0
 mccormick2[27]: - x[27] + r[27] <= 0
 mccormick2[28]: - x[28] + r[28] <= 0
 mccormick2[29]: - x[29] + r[29] <= 0
 mccormick2[30]: - x[30] + r[30] <= 0
 mccormick2[31]: - x[31] + r[31] <= 0
 mccormick2[32]: - x[32] + r[32] <= 0
 mccormick2[33]: - x[33] + r[33] <= 0
 mccormick2[34]: - x[34] + r[34] <= 0
 mccormick2[35]: - x[35] + r[35] <= 0
 mccormick2[36]: - x[36] + r[36] <= 0
 mccormick2[37]: - x[37] + r[37] <= 0
 mccormick2[38]: - x[38] + r[38] <= 0
 mccormick2[39]: - x[39] + r[39] <= 0
 mccormick2[40]: - x[40] + r[40] <= 0
 mccormick2[41]: - x[41] + r[41] <= 0
 mccormick2[42]: - x[42] + r[42] <= 0
 mccormick2[43]: - x[43] + r[43] <= 0
 mccormick2[44]: - x[44] + r[44] <= 0
 mccormick2[45]: - x[45] + r[45] <= 0
 mccormick2[46]: - x[46] + r[46] <= 0
 mccormick2[47]: - x[47] + r[47] <= 0
 mccormick2[48]: - x[48] + r[48] <= 0
 mccormick2[49]: - x[49] + r[49] <= 0
 mccormick2[50]: - x[50] + r[50] <= 0
 mccormick2[51]: - x[51] + r[51] <= 0
 mccormick2[52]: - x[52] + r[52] <= 0
 mccormick2[53]: - x[53] + r[53] <= 0
 mccormick2[54]: - x[54] + r[54] <= 0
 mccormick2[55]: - x[55] + r[55] <= 0
 mccormick2[56]: - x[56] + r[56] <= 0
 mccormick2[57]: - x[57] + r[57] <= 0
 mccormick2[58]: - x[58] + r[58] <= 0
 mccormick2[59]: - x[59] + r[59] <= 0
 mccormick2[60]: - x[60] + r[60] <= 0
 mccormick2[61]: - x[61] + r[61] <= 0
 mccormick2[62]: - x[62] + r[62] <= 0
 mccormick2[63]: - x[63] + r[63] <= 0
 mccormick2[64]: - x[64] + r[64] <= 0
 mccormick2[65]: - x[65] + r[65] <= 0
 mccormick2[66]: - x[66] + r[66] <= 0
 mccormick2[67]: - x[67] + r[67] <= 0
 mccormick2[68]: - x[68] + r[68] <= 0
 mccormick2[69]: - x[69] + r[69] <= 0
 mccormick2[70]: - x[70] + r[70] <= 0
 mccormick2[71]: - x[71] + r[71] <= 0
 mccormick2[72]: - x[72] + r[72] <= 0
 mccormick2[73]: - x[73] + r[73] <= 0
 mccormick2[74]: - x[74] + r[74] <= 0
 mccormick2[75]: - x[75] + r[75] <= 0
 mccormick2[76]: - x[76] + r[76] <= 0
 mccormick2[77]: - x[77] + r[77] <= 0
 mccormick2[78]: - x[78] + r[78] <= 0
 mccormick2[79]: - x[79] + r[79] <= 0
 mccormick2[80]: - x[80] + r[80] <= 0
 mccormick2[81]: - x[81] + r[81] <= 0
 mccormick2[82]: - x[82] + r[82] <= 0
 mccormick2[83]: - x[83] + r[83] <= 0
 mccormick2[84]: - x[84] + r[84] <= 0
 mccormick2[85]: - x[85] + r[85] <= 0
 mccormick2[86]: - x[86] + r[86] <= 0
 mccormick2[87]: - x[87] + r[87] <= 0
 mccormick2[88]: - x[88] + r[88] <= 0
 mccormick2[89]: - x[89] + r[89] <= 0
 mccormick2[90]: - x[90] + r[90] <= 0
 mccormick2[91]: - x[91] + r[91] <= 0
 mccormick2[92]: - x[92] + r[92] <= 0
 mccormick2[93]: - x[93] + r[93] <= 0
 mccormick2[94]: - x[94] + r[94] <= 0
 mccormick2[95]: - x[95] + r[95] <= 0
 mccormick2[96]: - x[96] + r[96] <= 0
 mccormick2[97]: - x[97] + r[97] <= 0
 mccormick2[98]: - x[98] + r[98] <= 0
 mccormick2[99]: - x[99] + r[99] <= 0
 mccormick3[0]: x[0] + u[0] - r[0] <= 1
 mccormick3[1]: x[1] + u[1] - r[1] <= 1
 mccormick3[2]: x[2] + u[2] - r[2] <= 1
 mccormick3[3]: x[3] + u[3] - r[3] <= 1
 mccormick3[4]: x[4] + u[4] - r[4] <= 1
 mccormick3[5]: x[5] + u[5] - r[5] <= 1
 mccormick3[6]: x[6] + u[6] - r[6] <= 1
 mccormick3[7]: x[7] + u[7] - r[7] <= 1
 mccormick3[8]: x[8] + u[8] - r[8] <= 1
 mccormick3[9]: x[9] + u[9] - r[9] <= 1
 mccormick3[10]: x[10] + u[10] - r[10] <= 1
 mccormick3[11]: x[11] + u[11] - r[11] <= 1
 mccormick3[12]: x[12] + u[12] - r[12] <= 1
 mccormick3[13]: x[13] + u[13] - r[13] <= 1
 mccormick3[14]: x[14] + u[14] - r[14] <= 1
 mccormick3[15]: x[15] + u[15] - r[15] <= 1
 mccormick3[16]: x[16] + u[16] - r[16] <= 1
 mccormick3[17]: x[17] + u[17] - r[17] <= 1
 mccormick3[18]: x[18] + u[18] - r[18] <= 1
 mccormick3[19]: x[19] + u[19] - r[19] <= 1
 mccormick3[20]: x[20] + u[20] - r[20] <= 1
 mccormick3[21]: x[21] + u[21] - r[21] <= 1
 mccormick3[22]: x[22] + u[22] - r[22] <= 1
 mccormick3[23]: x[23] + u[23] - r[23] <= 1
 mccormick3[24]: x[24] + u[24] - r[24] <= 1
 mccormick3[25]: x[25] + u[25] - r[25] <= 1
 mccormick3[26]: x[26] + u[26] - r[26] <= 1
 mccormick3[27]: x[27] + u[27] - r[27] <= 1
 mccormick3[28]: x[28] + u[28] - r[28] <= 1
 mccormick3[29]: x[29] + u[29] - r[29] <= 1
 mccormick3[30]: x[30] + u[30] - r[30] <= 1
 mccormick3[31]: x[31] + u[31] - r[31] <= 1
 mccormick3[32]: x[32] + u[32] - r[32] <= 1
 mccormick3[33]: x[33] + u[33] - r[33] <= 1
 mccormick3[34]: x[34] + u[34] - r[34] <= 1
 mccormick3[35]: x[35] + u[35] - r[35] <= 1
 mccormick3[36]: x[36] + u[36] - r[36] <= 1
 mccormick3[37]: x[37] + u[37] - r[37] <= 1
 mccormick3[38]: x[38] + u[38] - r[38] <= 1
 mccormick3[39]: x[39] + u[39] - r[39] <= 1
 mccormick3[40]: x[40] + u[40] - r[40] <= 1
 mccormick3[41]: x[41] + u[41] - r[41] <= 1
 mccormick3[42]: x[42] + u[42] - r[42] <= 1
 mccormick3[43]: x[43] + u[43] - r[43] <= 1
 mccormick3[44]: x[44] + u[44] - r[44] <= 1
 mccormick3[45]: x[45] + u[45] - r[45] <= 1
 mccormick3[46]: x[46] + u[46] - r[46] <= 1
 mccormick3[47]: x[47] + u[47] - r[47] <= 1
 mccormick3[48]: x[48] + u[48] - r[48] <= 1
 mccormick3[49]: x[49] + u[49] - r[49] <= 1
 mccormick3[50]: x[50] + u[50] - r[50] <= 1
 mccormick3[51]: x[51] + u[51] - r[51] <= 1
 mccormick3[52]: x[52] + u[52] - r[52] <= 1
 mccormick3[53]: x[53] + u[53] - r[53] <= 1
 mccormick3[54]: x[54] + u[54] - r[54] <= 1
 mccormick3[55]: x[55] + u[55] - r[55] <= 1
 mccormick3[56]: x[56] + u[56] - r[56] <= 1
 mccormick3[57]: x[57] + u[57] - r[57] <= 1
 mccormick3[58]: x[58] + u[58] - r[58] <= 1
 mccormick3[59]: x[59] + u[59] - r[59] <= 1
 mccormick3[60]: x[60] + u[60] - r[60] <= 1
 mccormick3[61]: x[61] + u[61] - r[61] <= 1
 mccormick3[62]: x[62] + u[62] - r[62] <= 1
 mccormick3[63]: x[63] + u[63] - r[63] <= 1
 mccormick3[64]: x[64] + u[64] - r[64] <= 1
 mccormick3[65]: x[65] + u[65] - r[65] <= 1
 mccormick3[66]: x[66] + u[66] - r[66] <= 1
 mccormick3[67]: x[67] + u[67] - r[67] <= 1
 mccormick3[68]: x[68] + u[68] - r[68] <= 1
 mccormick3[69]: x[69] + u[69] - r[69] <= 1
 mccormick3[70]: x[70] + u[70] - r[70] <= 1
 mccormick3[71]: x[71] + u[71] - r[71] <= 1
 mccormick3[72]: x[72] + u[72] - r[72] <= 1
 mccormick3[73]: x[73] + u[73] - r[73] <= 1
 mccormick3[74]: x[74] + u[74] - r[74] <= 1
 mccormick3[75]: x[75] + u[75] - r[75] <= 1
 mccormick3[76]: x[76] + u[76] - r[76] <= 1
 mccormick3[77]: x[77] + u[77] - r[77] <= 1
 mccormick3[78]: x[78] + u[78] - r[78] <= 1
 mccormick3[79]: x[79] + u[79] - r[79] <= 1
 mccormick3[80]: x[80] + u[80] - r[80] <= 1
 mccormick3[81]: x[81] + u[81] - r[81] <= 1
 mccormick3[82]: x[82] + u[82] - r[82] <= 1
 mccormick3[83]: x[83] + u[83] - r[83] <= 1
 mccormick3[84]: x[84] + u[84] - r[84] <= 1
 mccormick3[85]: x[85] + u[85] - r[85] <= 1
 mccormick3[86]: x[86] + u[86] - r[86] <= 1
 mccormick3[87]: x[87] + u[87] - r[87] <= 1
 mccormick3[88]: x[88] + u[88] - r[88] <= 1
 mccormick3[89]: x[89] + u[89] - r[89] <= 1
 mccormick3[90]: x[90] + u[90] - r[90] <= 1
 mccormick3[91]: x[91] + u[91] - r[91] <= 1
 mccormick3[92]: x[92] + u[92] - r[92] <= 1
 mccormick3[93]: x[93] + u[93] - r[93] <= 1
 mccormick3[94]: x[94] + u[94] - r[94] <= 1
 mccormick3[95]: x[95] + u[95] - r[95] <= 1
 mccormick3[96]: x[96] + u[96] - r[96] <= 1
 mccormick3[97]: x[97] + u[97] - r[97] <= 1
 mccormick3[98]: x[98] + u[98] - r[98] <= 1
 mccormick3[99]: x[99] + u[99] - r[99] <= 1
Bounds
Binaries
 x[0] x[1] x[2] x[3] x[4] x[5] x[6] x[7] x[8] x[9] x[10] x[11] x[12] x[13]
 x[14] x[15] x[16] x[17] x[18] x[19] x[20] x[21] x[22] x[23] x[24] x[25]
 x[26] x[27] x[28] x[29] x[30] x[31] x[32] x[33] x[34] x[35] x[36] x[37]
 x[38] x[39] x[40] x[41] x[42] x[43] x[44] x[45] x[46] x[47] x[48] x[49]
 x[50] x[51] x[52] x[53] x[54] x[55] x[56] x[57] x[58] x[59] x[60] x[61]
 x[62] x[63] x[64] x[65] x[66] x[67] x[68] x[69] x[70] x[71] x[72] x[73]
 x[74] x[75] x[76] x[77] x[78] x[79] x[80] x[81] x[82] x[83] x[84] x[85]
 x[86] x[87] x[88] x[89] x[90] x[91] x[92] x[93] x[94] x[95] x[96] x[97]
 x[98] x[99] u[0] u[1] u[2] u[3] u[4] u[5] u[6] u[7] u[8] u[9] u[10] u[11]
 u[12] u[13] u[14] u[15] u[16] u[17] u[18] u[19] u[20] u[21] u[22] u[23]
 u[24] u[25] u[26] u[27] u[28] u[29] u[30] u[31] u[32] u[33] u[34] u[35]
 u[36] u[37] u[38] u[39] u[40] u[41] u[42] u[43] u[44] u[45] u[46] u[47]
 u[48] u[49] u[50] u[51] u[52] u[53] u[54] u[55] u[56] u[57] u[58] u[59]
 u[60] u[61] u[62] u[63] u[64] u[65] u[66] u[67] u[68] u[69] u[70] u[71]
 u[72] u[73] u[74] u[75] u[76] u[77] u[78] u[79] u[80] u[81] u[82] u[83]
 u[84] u[85] u[86] u[87] u[88] u[89] u[90] u[91] u[92] u[93] u[94] u[95]
 u[96] u[97] u[98] u[99] r[0] r[1] r[2] r[3] r[4] r[5] r[6] r[7] r[8] r[9]
 r[10] r[11] r[12] r[13] r[14] r[15] r[16] r[17] r[18] r[19] r[20] r[21]
 r[22] r[23] r[24] r[25] r[26] r[27] r[28] r[29] r[30] r[31] r[32] r[33]
 r[34] r[35] r[36] r[37] r[38] r[39] r[40] r[41] r[42] r[43] r[44] r[45]
 r[46] r[47] r[48] r[49] r[50] r[51] r[52] r[53] r[54] r[55] r[56] r[57]
 r[58] r[59] r[60] r[61] r[62] r[63] r[64] r[65] r[66] r[67] r[68] r[69]
 r[70] r[71] r[72] r[73] r[74] r[75] r[76] r[77] r[78] r[79] r[80] r[81]
 r[82] r[83] r[84] r[85] r[86] r[87] r[88] r[89] r[90] r[91] r[92] r[93]
 r[94] r[95] r[96] r[97] r[98] r[99]
End
