instances/knapsack/discrete/knapsack_100_19.kp
57327
100
501

12 1.2 29
97 9.7 45
99 9.9 63
24 2.4 35
33 3.3 60
30 3.0 40
66 6.6 40
20 2.0 86
58 5.8 45
91 9.1 13
96 9.6 90
8 0.8 90
85 8.5 54
97 9.7 37
85 8.5 14
57 5.7 71
2 0.2 37
97 9.7 61
30 3.0 25
87 8.7 88
54 5.4 8
32 3.2 94
69 6.9 39
75 7.5 75
81 8.1 20
33 3.3 21
79 7.9 79
52 5.2 14
94 9.4 1
100 10.0 71
14 1.4 44
68 6.8 11
48 4.8 47
70 7.0 26
53 5.3 18
26 2.6 52
29 2.9 60
81 8.1 2
41 4.1 93
87 8.7 90
32 3.2 43
22 2.2 68
71 7.1 44
90 9.0 10
4 0.4 25
55 5.5 62
22 2.2 23
30 3.0 75
12 1.2 51
85 8.5 56
59 5.9 70
53 5.3 65
42 4.2 98
33 3.3 8
57 5.7 71
60 6.0 77
2 0.2 29
27 2.7 75
37 3.7 15
59 5.9 30
65 6.5 87
87 8.7 53
24 2.4 52
11 1.1 96
80 8.0 65
77 7.7 12
53 5.3 88
87 8.7 20
9 0.9 91
82 8.2 56
50 5.0 84
94 9.4 98
63 6.3 8
28 2.8 8
20 2.0 33
93 9.3 13
47 4.7 97
96 9.6 80
9 0.9 99
63 6.3 34
6 0.6 38
62 6.2 69
79 7.9 68
98 9.8 41
10 1.0 92
54 5.4 11
48 4.8 81
97 9.7 74
35 3.5 15
4 0.4 29
37 3.7 1
61 6.1 20
57 5.7 72
44 4.4 47
1 0.1 59
78 7.8 49
26 2.6 96
25 2.5 59
37 3.7 11
57 5.7 47

86950
536

[1.8878745557320906 2.5639820156665523 2.4022248756097793 0.4695148976091725 0.4213037835592551 3.9418586370154247 0.9132694213011748 4.431409991439713 1.9551169871898921 0.3443553749194874 4.068847241011051 1.0939880893370182 5.068737827989272 1.4832588538516436 0.6099747988417654 3.8721563432371946 4.786974298663233 1.93937490389232 1.5017761994362975 0.2127057210567625 3.653981514543977 4.372858443940381 2.467824710468356 3.2871529524356835 1.5434272273872505 4.2298428403605035 4.67012113797338 4.37719441518276 2.5900398397350908 3.811631988362512 5.1267569787943685 3.5534072711535525 0.9963391455237506 4.916764730365744 3.5874235370780614 2.617829806596501 0.9110121461670099 0.800986610071367 0.5041176371333079 1.2040789222138553 3.417380373945084 4.641467683096101 4.53577678610621 4.801954787684021 0.7200281390342658 3.2602451116609057 0.09662084990974303 5.198142468900562 0.32045981255261946 4.927008195700459 4.944639140741275 3.7947497450601273 3.6224306569453857 0.8040939168547742 4.052818131523359 1.4276913528385389 3.9571904944404968 1.1200983459235772 1.0670738371664246 0.08665625449367434 4.972183189130224 1.6304904233495965 4.664192822759478 3.7885692259713744 0.3751963448021215 1.8157300558190046 1.6222594225988518 4.78997354162684 0.11018104480023988 2.160707985842293 3.425760606474323 4.381818789524618 3.3440704194545665 1.3627928474229232 1.4083686232088466 4.017777873588575 5.162255673725627 2.0486652683171265 4.79674956550868 3.886603496056694 2.470775541479681 1.1101915246661345 4.51211561415883 2.5675254476098788 4.757963841672428 1.7535867799620601 3.739735688741561 5.038511199654639 0.03933384630220878 1.0463847134109707 2.3200286291227683 0.5536936265494657 2.2307976687758337 2.7372597670131955 1.5360073089418778 4.643515904770328 2.1529938592285633 2.9614270343641547 0.21925595120701985 3.637949882181057]

[38 78 92 85 46 84 51 98 59 28 74 17 98 86 99 51 59 94 43 36 27 22 54 85 7 34 76 34 88 49 80 50 82 55 58 43 54 15 22 21 25 60 72 20 49 61 56 52 65 50 53 54 15 38 79 34 23 17 10 84 15 81 26 25 74 78 67 69 14 36 40 44 84 33 2 43 61 1 3 81 88 88 81 20 64 96 70 90 92 65 75 99 63 82 94 79 79 67 82 90]
